c description: Random 3-CNF over 17 variables and 72 clauses
c generator: CNFgen (0.9.2)
c copyright: (C) 2012-2022 Massimo Lauria <massimo.lauria@uniroma1.it>
c url: https://massimolauria.net/cnfgen
c command line: cnfgen --output ../CNF/17_bit_72_107.cnf randkcnf 3 17 72
c
p cnf 17 72
7 -13 15 0
-9 -15 -16 0
-9 -14 -16 0
-1 6 14 0
12 13 -16 0
-2 -9 13 0
5 9 16 0
2 9 17 0
4 -14 -16 0
1 -5 13 0
-5 -8 17 0
3 8 14 0
-5 -11 -14 0
-7 10 -17 0
2 -11 -13 0
-8 -10 -15 0
-6 -11 -12 0
4 5 -7 0
2 5 10 0
-2 -4 14 0
-13 -14 -15 0
3 7 13 0
-5 -8 -9 0
-6 14 -16 0
-9 -10 13 0
3 -12 -17 0
5 11 -12 0
-3 -12 14 0
2 15 -16 0
-9 11 -16 0
4 7 -17 0
9 -12 -15 0
-2 7 13 0
2 10 13 0
4 -7 -14 0
8 9 11 0
-10 -13 17 0
-4 -5 16 0
1 -6 17 0
-3 -4 -13 0
-2 -3 5 0
-4 10 -13 0
-12 15 -16 0
-2 4 14 0
4 -7 8 0
4 -7 16 0
4 7 17 0
-9 11 16 0
3 -9 -17 0
-5 -10 12 0
-5 -7 -13 0
-3 -14 -15 0
1 -7 12 0
1 -7 10 0
1 -3 11 0
-2 -3 -11 0
-2 -14 16 0
2 3 10 0
3 5 -6 0
1 -5 -8 0
1 2 3 0
-1 3 -16 0
5 11 12 0
2 -9 -12 0
3 -9 -13 0
-4 -7 -12 0
6 14 -16 0
5 -10 13 0
-1 7 16 0
-7 8 -17 0
-1 -2 -12 0
-8 -11 -17 0
